0 5005.19
1 4959.42
2 4959.42
3 4959.42
4 4959.42
5 4959.42
6 4959.42
7 4959.42
8 4910.86
9 4910.86
10 4910.86
11 4910.86
12 4910.86
13 4910.86
14 4851.29
15 4851.29
16 4851.29
17 4851.29
18 4851.29
19 4851.29
20 4851.29
21 4851.29
22 4851.29
23 4851.29
24 4851.29
25 4851.29
26 4851.29
27 4851.29
28 4851.29
29 4851.29
30 4851.29
31 4851.29
32 4851.29
33 4851.29
34 4851.29
35 4851.29
36 4851.29
37 4851.29
38 4851.29
39 4851.29
40 4851.29
41 4851.29
42 4851.29
43 4851.29
44 4851.29
45 4851.29
46 4851.29
47 4851.29
48 4851.29
49 4851.29
50 4851.29
51 4851.29
52 4851.29
53 4851.29
54 4851.29
55 4851.29
56 4851.29
57 4851.29
58 4851.29
59 4851.29
60 4851.29
61 4851.29
62 4851.29
63 4851.29
64 4851.29
65 4851.29
66 4851.29
67 4851.29
68 4851.29
69 4849.26
70 4849.26
71 4849.26
72 4849.26
73 4849.26
74 4849.26
75 4849.26
76 4849.26
77 4849.26
78 4849.26
79 4849.26
80 4849.26
81 4849.26
82 4849.26
83 4849.26
84 4849.26
85 4849.26
86 4849.26
87 4849.26
88 4849.26
89 4849.26
90 4849.26
91 4849.26
92 4849.26
93 4849.26
94 4849.26
95 4849.26
96 4849.26
97 4849.26
98 4849.26
99 4849.26
100 4849.26
101 4849.26
102 4849.26
103 4849.26
104 4849.26
105 4849.26
106 4849.26
107 4849.26
108 4849.26
109 4849.26
110 4849.26
111 4849.26
112 4849.26
113 4849.26
114 4849.26
115 4849.26
116 4849.26
117 4849.26
118 4849.26
119 4849.26
120 4849.26
121 4849.26
122 4849.26
123 4849.26
124 4849.26
125 4849.26
126 4849.26
127 4849.26
128 4849.26
129 4849.26
130 4849.26
131 4849.26
132 4849.26
133 4849.26
134 4849.26
135 4849.26
136 4849.26
137 4849.26
138 4849.26
139 4849.26
140 4849.26
141 4849.26
142 4849.26
143 4849.26
144 4849.26
145 4849.26
146 4849.26
147 4849.26
148 4849.26
149 4849.26
150 4849.26
151 4849.26
152 4849.26
153 4849.26
154 4849.26
155 4830.74
156 4830.74
157 4830.74
158 4830.74
159 4830.74
160 4830.74
161 4830.74
162 4830.74
163 4830.74
164 4830.74
165 4830.74
166 4830.74
167 4830.74
168 4830.74
169 4830.74
170 4830.74
171 4830.74
172 4830.74
173 4830.74
174 4830.74
175 4830.74
176 4830.74
177 4830.74
178 4830.74
179 4830.74
180 4830.74
181 4830.74
182 4830.74
183 4830.74
184 4830.74
185 4830.74
186 4830.74
187 4830.74
188 4830.74
189 4830.74
190 4830.74
191 4830.74
192 4830.74
193 4830.74
194 4830.74
195 4830.74
196 4830.74
197 4830.74
198 4830.74
199 4830.74
200 4830.74
201 4830.74
202 4830.74
203 4830.74
204 4830.74
205 4830.74
206 4830.74
207 4830.74
208 4830.74
209 4830.74
210 4830.74
211 4830.74
212 4830.74
213 4830.74
214 4830.74
215 4819.48
216 4819.48
217 4819.48
218 4819.48
219 4819.48
220 4818.43
221 4818.43
222 4818.43
223 4818.43
224 4818.43
225 4818.43
226 4818.43
227 4818.43
228 4818.43
229 4818.43
230 4818.43
231 4818.43
232 4816.00
233 4811.04
234 4811.04
235 4811.04
236 4811.04
237 4811.04
238 4811.04
239 4811.04
240 4811.04
241 4811.04
242 4811.04
243 4811.04
244 4811.04
245 4811.04
246 4811.04
247 4811.04
248 4811.04
249 4811.04
250 4811.04
251 4811.04
252 4811.04
253 4811.04
254 4811.04
255 4811.04
256 4811.04
257 4811.04
258 4811.04
259 4810.58
260 4810.58
261 4805.04
262 4805.04
263 4805.04
264 4805.04
265 4805.04
266 4805.04
267 4805.04
268 4805.04
269 4805.04
270 4805.04
271 4805.04
272 4805.04
273 4805.04
274 4805.04
275 4805.04
276 4805.04
277 4805.04
278 4805.04
279 4805.04
280 4805.04
281 4805.04
282 4805.04
283 4805.04
284 4805.04
285 4805.04
286 4805.04
287 4805.04
288 4805.04
289 4805.04
290 4805.04
291 4805.04
292 4805.04
293 4805.04
294 4805.04
295 4805.04
296 4805.04
297 4805.04
298 4805.04
299 4805.04
300 4805.04
301 4805.04
302 4805.04
303 4805.04
304 4805.04
305 4805.04
306 4805.04
307 4805.04
308 4805.04
309 4805.04
310 4805.04
311 4805.04
312 4805.04
313 4805.04
314 4805.04
315 4805.04
316 4805.04
317 4805.04
318 4805.04
319 4805.04
320 4805.04
321 4805.04
322 4805.04
323 4805.04
324 4805.04
325 4805.04
326 4805.04
327 4805.04
328 4805.04
329 4805.04
330 4805.04
331 4805.04
332 4805.04
333 4805.04
334 4805.04
335 4805.04
336 4805.04
337 4805.04
338 4805.04
339 4805.04
340 4805.04
341 4805.04
342 4805.04
343 4805.04
344 4805.04
345 4805.04
346 4805.04
347 4805.04
348 4805.04
349 4805.04
350 4805.04
351 4805.04
352 4805.04
353 4805.04
354 4805.04
355 4805.04
356 4805.04
357 4805.04
358 4805.04
359 4805.04
360 4805.04
361 4805.04
362 4805.04
363 4805.04
364 4805.04
365 4804.53
366 4804.53
367 4804.53
368 4804.53
369 4804.53
370 4804.53
371 4804.53
372 4804.53
373 4804.53
374 4804.53
375 4804.53
376 4804.53
377 4804.53
378 4804.53
379 4804.53
380 4804.53
381 4804.53
382 4804.53
383 4804.53
384 4804.53
385 4804.53
386 4803.69
387 4803.69
388 4803.69
389 4803.69
390 4803.69
391 4803.69
392 4803.69
393 4803.69
394 4803.69
395 4803.69
396 4803.69
397 4803.69
398 4803.69
399 4803.69
400 4803.69
401 4803.69
402 4803.69
403 4803.69
404 4803.69
405 4803.69
406 4803.69
407 4803.69
408 4803.69
409 4803.69
410 4803.69
411 4803.69
412 4803.69
413 4803.69
414 4803.69
415 4803.69
416 4803.69
417 4803.69
418 4803.69
419 4803.69
420 4803.69
421 4803.69
422 4803.69
423 4803.69
424 4803.69
425 4803.69
426 4803.69
427 4803.69
428 4803.69
429 4803.69
430 4803.69
431 4803.69
432 4803.69
433 4803.69
434 4803.69
435 4803.69
436 4803.69
437 4803.69
438 4803.69
439 4803.69
440 4803.69
441 4803.69
442 4803.69
443 4803.69
444 4803.69
445 4803.69
446 4803.69
447 4803.69
448 4803.69
449 4803.69
450 4803.69
451 4803.69
452 4803.69
453 4803.69
454 4803.69
455 4803.69
456 4803.69
457 4803.69
458 4803.69
459 4803.69
460 4803.69
461 4803.69
462 4803.69
463 4803.69
464 4803.69
465 4803.69
466 4803.69
467 4803.69
468 4803.69
469 4803.69
470 4803.69
471 4803.69
472 4803.69
473 4803.69
474 4803.69
475 4803.69
476 4803.69
477 4803.69
478 4803.69
479 4803.69
480 4803.69
481 4803.69
482 4803.69
483 4803.69
484 4803.69
485 4803.69
486 4803.69
487 4803.69
488 4803.69
489 4803.69
490 4803.69
491 4803.69
492 4803.69
493 4803.69
494 4803.69
495 4803.69
496 4803.69
497 4803.69
498 4803.69
499 4803.69
2 7 7 4 0 0 